26772
0 0 0 0 1 0 0 0 1 0 1 0 1 1 0 0 0 0 1 1 0 1 0 1 1 1 0 1 1 0
18 19 21 27 21 12 21 27 18 28 4 28 13 13 28 18 13 10 27 27 18 21 23 24 10 18 27 19 4 21 19 19 4 21 27 12 8 8 24 21 18 8 12 4 8 19 13 21 19 10 24 24 24 21 8 12 25 8 18 25 4 24 18 8 13 25 23 19 28 25 18 12 19 8 23 23 10 23 8 24 10 23 8 25 4 13 19 23 27 25 28 19 25 25 23 13 28 12 10 28 28 21 25 18 4 24 4 24 27 13 19 4 27 12 12 8 28 25 28 8 8 25 28 19 4 21 24 12 19 28 28 24 25 10 23 8 13 13 28 10 12 27 12 25 25 23 24 21 27 25 24 28 23 28 8 28 23 21 13 13 13 27 10 24 23 27 23 4 13 21 23 8 19 10 4 21 24 10 4 10 23 21 21 19 12 8 28 23 27 21 21 21 19 4 25 12 25 21 10 19
